CPXPARAM_Simplex_Display                         2
CPXPARAM_TimeLimit                               7200
CPXPARAM_Read_APIEncoding                        "*"
CPXPARAM_Output_CloneLog                         1
CPXPARAM_MIP_Tolerances_MIPGap                   0.035000000000000003
CPXPARAM_MIP_Interval                            20
CPXPARAM_MIP_Strategy_VariableSelect             1
CPXPARAM_Barrier_Display                         2
Tried aggregator 1 time.
MIP Presolve eliminated 18 rows and 0 columns.
MIP Presolve added 187200 rows and 93600 columns.
MIP Presolve modified 32774 coefficients.
Reduced MIP has 187318 rows, 95200 columns, and 387081 nonzeros.
Reduced MIP has 95200 binaries, 0 generals, 0 SOSs, and 0 indicators.
Presolve time = 0.17 sec. (65.68 ticks)
Probing fixed 19 vars, tightened 0 bounds.
Probing time = 6.32 sec. (51.07 ticks)
Tried aggregator 1 time.
MIP Presolve eliminated 127062 rows and 33481 columns.
MIP Presolve modified 760 coefficients.
Reduced MIP has 60256 rows, 61719 columns, and 192677 nonzeros.
Reduced MIP has 61719 binaries, 0 generals, 0 SOSs, and 0 indicators.
Presolve time = 0.63 sec. (210.37 ticks)
Probing fixed 19 vars, tightened 0 bounds.
Probing time = 3.87 sec. (21.90 ticks)
Tried aggregator 1 time.
MIP Presolve eliminated 741 rows and 760 columns.
Reduced MIP has 59515 rows, 60959 columns, and 190397 nonzeros.
Reduced MIP has 60959 binaries, 0 generals, 0 SOSs, and 0 indicators.
Presolve time = 0.34 sec. (124.39 ticks)
Probing time = 3.42 sec. (17.16 ticks)
Clique table members: 14272.
MIP emphasis: balance optimality and feasibility.
MIP search method: dynamic search.
Parallel mode: deterministic, using up to 32 threads.
Root relaxation solution time = 14.77 sec. (2066.13 ticks)

        Nodes                                         Cuts/
   Node  Left     Objective  IInf  Best Integer    Best Bound    ItCnt     Gap

*     0+    0                        29644.0317        0.0000           100.00%
*     0+    0                          719.9004        0.0000           100.00%
      0     0      700.3368   189      719.9004      700.3368     7391    2.72%

Root node processing (before b&c):
  Real time             =   32.58 sec. (3765.04 ticks)
Parallel b&c, 32 threads:
  Real time             =    0.00 sec. (0.00 ticks)
  Sync time (average)   =    0.00 sec.
  Wait time (average)   =    0.00 sec.
                          ------------
Total (root+branch&cut) =   32.58 sec. (3765.04 ticks)
